Maximize

  25 x_0 + 45 x_1 + 70 x_2 + 10 x_3 + 15 x_4 + 20 x_5 + 30 x_6 + 35 x_7 + 20 x_8 + 40 x_9 + 50 x_10 + 55 x_11 + 15 x_12 + 22 x_13 + 30 x_14 

Subject To

   c49: x_3 + x_4 <=  1
   c65: x_4 + x_5 <=  1
   c113: x_7 + x_8 <=  1
   c114: x_7 + x_9 <=  1
   c115: x_7 + x_10 <=  1
   c116: x_7 + x_11 <=  1
   c145: x_9 + x_10 <=  1
   c146: x_9 + x_11 <=  1
   c147: x_9 + x_12 <=  1
   c193: x_12 + x_13 <=  1
   c194: x_12 + x_14 <=  1
   c209: x_13 + x_14 <=  1

Binary

 x_0 x_1 x_2 x_3 x_4 x_5 x_6 x_7 x_8 x_9 x_10 x_11 x_12 x_13 x_14 

